row=8;
Board=[|-1,9,-1,-1,1,8,0,7,-1,-1|5,-1,-1,7,2,-1,4,-1,-1,-1|1,9,-1,8,0,5,-1,-1,2,3|8,-1,0,-1,-1,-1,-1,4,6,5|-1,5,6,1,3,-1,7,-1,-1,4|9,7,2,5,0,-1,-1,-1,6,3|5,-1,-1,-1,4,-1,0,9,7,2|-1,4,-1,-1,0,-1,8,-1,-1,5|];
bottom=[34,48,31,36,17,50,30,47,39,28]